! ================================================================
! This structure was optimized by RM1.
! ================================================================
 $SYSTEM MWORDS=20 $END
 $CONTRL RUNTYP=gradient $END
 $STATPT  OptTol=1e-5 NStep=700 $END
 $BASIS GBASIS=rm1 NGAUSS=6 $END
 $CONTRL MAXIT=200 $END
 $CONTRL ICHARG=0  MULT=1 $END
 $DATA
Molecule specification
Cn 1

C     6.0     5.33826     3.07998    -0.30520
C     6.0     4.79225     1.83533     0.00611
C     6.0     3.65362     1.72112     0.79995
C     6.0     3.08376     2.88475     1.27851
C     6.0     4.76745     4.26021     0.16486
C     6.0     3.64254     4.15859     0.95986
C     6.0     1.89281     3.10864     2.09269
N     7.0     1.94084     4.47161     2.42258
H     1.0     6.23486     3.13142    -0.93138
H     1.0     5.26848     0.92840    -0.38031
H     1.0     3.22115     0.74666     1.04365
H     1.0     5.19141     5.23815    -0.07986
C     6.0     2.80258     5.18278     1.57379
N     7.0     2.65383     6.49557     1.25293
C     6.0    -3.65977     1.18501     2.18679
C     6.0    -4.46026     2.32604     2.22277
C     6.0    -3.90969     3.59260     2.40328
C     6.0    -2.53981     3.68288     2.55447
C     6.0    -2.27666     1.26481     2.33001
C     6.0    -1.72053     2.51503     2.51781
C     6.0    -1.66489     4.83909     2.72586
N     7.0    -0.40936     4.29084     3.02873
H     1.0    -4.12741     0.20544     2.04392
H     1.0    -5.54433     2.22511     2.10775
H     1.0    -4.53437     4.48985     2.42922
H     1.0    -1.64565     0.37213     2.29944
B     5.0     0.82041     5.14924     3.16671
C     6.0    -0.33086     2.93746     2.66621
N     7.0     0.81592     2.30535     2.30127
C     6.0    -1.03317    10.13946     0.26682
C     6.0     0.31327    10.24323    -0.08008
C     6.0     1.24168     9.28636     0.32292
C     6.0     0.78625     8.23031     1.08771
C     6.0    -1.50514     9.07471     1.03067
C     6.0    -0.59181     8.12416     1.44285
C     6.0     1.48057     7.06740     1.63288
N     7.0     0.54351     6.46337     2.48509
H     1.0    -1.73456    10.91102    -0.06695
H     1.0     0.64876    11.09468    -0.68101
H     1.0     2.29791     9.36318     0.05007
H     1.0    -2.56104     8.98881     1.30207
C     6.0    -0.76330     6.89466     2.21136
N     7.0    -1.87896     6.14676     2.42178
Cl    17.0     1.26799     5.40645     4.97901
C     6.0    -3.73085     5.79260    -7.00621
C     6.0    -3.29841     6.71361    -5.97230
C     6.0    -1.99490     7.22813    -6.34689
C     6.0    -1.62171     6.62507    -7.61229
C     6.0    -2.69457     5.73788    -8.01978
C     6.0    -2.40289     4.54643    -8.64116
C     6.0    -1.02229     4.17673    -8.88920
C     6.0    -0.00530     5.01773    -8.50299
C     6.0    -0.31305     6.27461    -7.84743
C     6.0     0.69424     6.50792    -6.83003
C     6.0     0.34051     7.07959    -5.63055
C     6.0    -1.04004     7.44936    -5.38250
C     6.0    -1.33619     7.16831    -3.99055
C     6.0    -2.57182     6.68059    -3.63547
C     6.0    -3.57909     6.44714    -4.65287
C     6.0    -4.30756     5.24491    -4.29488
C     6.0    -3.75058     4.73536    -3.05620
C     6.0    -2.67783     5.62264    -2.64869
C     6.0    -1.54267     5.10745    -2.06853
C     6.0    -0.23914     5.62194    -2.44311
C     6.0    -0.13864     6.62483    -3.37839
C     6.0     0.89765     6.57007    -4.39191
C     6.0     1.77949     5.51535    -4.41729
C     6.0     2.15265     4.91224    -5.68271
C     6.0     1.62453     5.39525    -6.85680
C     6.0     1.19221     4.47427    -7.89076
C     6.0     1.31042     3.11814    -7.69670
C     6.0     0.23756     2.23092    -8.10418
C     6.0    -0.89761     2.74607    -8.68447
C     6.0    -2.20115     2.23158    -8.30988
C     6.0    -2.30165     1.22873    -7.37450
C     6.0    -1.10409     0.68536    -6.76230
C     6.0     0.13155     1.17302    -7.11737
C     6.0     1.13889     1.40643    -6.10001
C     6.0     1.86748     2.60858    -6.45805
C     6.0     2.27738     3.48161    -5.47798
C     6.0     1.98128     3.20049    -4.08603
C     6.0     1.67352     4.45742    -3.43054
C     6.0     0.69114     4.50929    -2.46989
C     6.0    -0.03743     3.30712    -2.11181
C     6.0    -1.41800     3.67682    -1.86377
C     6.0    -2.43499     2.83581    -2.24990
C     6.0    -3.63255     3.37924    -2.86206
C     6.0    -4.06494     2.45821    -3.89597
C     6.0    -3.13461     1.34555    -3.92275
C     6.0    -2.12730     1.57886    -2.90534
C     6.0    -0.81860     1.22857    -3.14054
C     6.0     0.25429     2.11570    -2.73309
C     6.0     1.29065     2.06095    -3.74662
C     6.0     0.85816     1.14004    -4.78058
C     6.0    -0.44542     0.62568    -4.40602
C     6.0    -1.40027     0.40436    -5.37036
C     6.0    -2.78086     0.77396    -5.12228
C     6.0    -3.33793     1.28348    -6.36093
C     6.0    -4.21977     2.33820    -6.33554
C     6.0    -4.59293     2.94125    -5.07012
C     6.0    -4.71750     4.37189    -5.27489
C     6.0    -4.42146     4.65304    -6.66683
C     6.0    -4.11378     3.39613    -7.32235
C     6.0    -3.13145     3.34426    -8.28310
C     6.0   -10.21423     5.00208     0.40552
C     6.0   -11.58915     5.33861     0.72253
C     6.0   -12.36596     5.24774    -0.49913
C     6.0   -11.47118     4.85497    -1.57117
C     6.0   -10.14133     4.70314    -1.01206
C     6.0    -9.04097     5.08957    -1.74049
C     6.0    -9.20998     5.64916    -3.06804
C     6.0   -10.47057     5.79321    -3.59803
C     6.0   -11.63139     5.38548    -2.82960
C     6.0   -12.69524     6.33790    -3.08518
C     6.0   -13.54339     6.71025    -2.06896
C     6.0   -13.37436     6.15061    -0.74138
C     6.0   -13.66139     7.19389     0.22476
C     6.0   -12.92504     7.28001     1.38281
C     6.0   -11.86117     6.32758     1.63832
C     6.0   -10.77326     7.03419     2.28748
C     6.0   -11.16477     8.42334     2.43321
C     6.0   -12.49462     8.57526     1.87405
C     6.0   -12.82301     9.71692     1.18162
C     6.0   -13.59982     9.62607    -0.04008
C     6.0   -14.00783     8.39830    -0.50571
C     6.0   -13.93491     8.09941    -1.92330
C     6.0   -13.45780     9.04385    -2.80143
C     6.0   -12.56298     8.65104    -3.87345
C     6.0   -12.19191     7.33424    -4.01156
C     6.0   -10.81699     6.99760    -4.32855
C     6.0    -9.88479     7.99528    -4.49096
C     6.0    -8.55497     7.84336    -3.93178
C     6.0    -8.22665     6.70171    -3.23930
C     6.0    -7.44991     6.79261    -2.01762
C     6.0    -7.04182     8.02035    -1.55198
C     6.0    -7.38816     9.22473    -2.28250
C     6.0    -8.12456     9.13860    -3.44054
C     6.0    -9.18838    10.09103    -3.69615
C     6.0   -10.27626     9.38443    -4.34533
C     6.0   -11.57955     9.70353    -4.04479
C     6.0   -11.86658    10.74681    -3.07865
C     6.0   -13.02740    10.33910    -2.31022
C     6.0   -13.09649    10.62242    -0.96647
C     6.0   -12.00860    11.32904    -0.31732
C     6.0   -11.83957    10.76941     1.01028
C     6.0   -10.57900    10.62540     1.54030
C     6.0   -10.23256     9.42099     2.27079
C     6.0    -8.85763     9.08431     1.95381
C     6.0    -8.35435    10.08062     1.02735
C     6.0    -9.41820    11.03309     0.77182
C     6.0    -9.57843    11.56359    -0.48659
C     6.0   -10.90827    11.71555    -1.04574
C     6.0   -10.83536    11.41663    -2.46331
C     6.0    -9.46045    11.07993    -2.78029
C     6.0    -8.68363    11.17074    -1.55860
C     6.0    -7.67514    10.26797    -1.31635
C     6.0    -7.50603     9.70837     0.01122
C     6.0    -7.11458     8.31922    -0.13442
C     6.0    -7.59176     7.37478     0.74369
C     6.0    -8.48651     7.76752     1.81576
C     6.0    -9.46994     6.71506     1.98708
C     6.0    -9.18298     5.67183     1.02092
C     6.0    -8.02214     6.07953     0.25249
C     6.0    -7.95317     5.79627    -1.09130
C     6.0     5.57863     8.08850    -7.62659
C     6.0     5.12375     8.18257    -6.25242
C     6.0     4.13444     9.24088    -6.17920
C     6.0     3.97786     9.80086    -7.50811
C     6.0     4.87044     9.08865    -8.40267
C     6.0     5.51986     9.76535    -9.40817
C     6.0     5.31225    11.19136    -9.57445
C     6.0     4.46607    11.86644    -8.72652
C     6.0     3.78104    11.15258    -7.66570
C     6.0     3.72998    12.01845    -6.50302
C     6.0     3.87823    11.48758    -5.24327
C     6.0     4.08593    10.06162    -5.07704
C     6.0     5.02403     9.86917    -3.98753
C     6.0     5.96190     8.86601    -4.05699
C     6.0     6.01305     8.00015    -5.21967
C     6.0     7.40627     7.71369    -5.50437
C     6.0     8.21620     8.40259    -4.51766
C     6.0     7.32354     9.11473    -3.62310
C     6.0     7.67643    10.35377    -3.14253
C     6.0     6.68705    11.41208    -3.06936
C     6.0     5.39627    11.17625    -3.48046
C     6.0     4.68815    12.17646    -4.25656
C     6.0     5.30767    13.36037    -4.58105
C     6.0     5.15119    13.92050    -5.90996
C     6.0     4.38340    13.26749    -6.84527
C     6.0     4.83835    13.17353    -8.21946
C     6.0     6.03744    13.73745    -8.58671
C     6.0     6.93012    13.02530    -9.48126
C     6.0     6.57722    11.78630    -9.96193
C     6.0     7.56659    10.72799   -10.03515
C     6.0     8.85730    10.96383    -9.62388
C     6.0     9.22960    12.27094    -9.11682
C     6.0     8.29177    13.27412    -9.04742
C     6.0     8.24066    14.14004    -7.88475
C     6.0     6.84741    14.42639    -7.60001
C     6.0     6.41613    14.51550    -6.29741
C     6.0     7.35436    14.32313    -5.20796
C     6.0     6.66930    13.60925    -4.14716
C     6.0     7.34056    12.66112    -3.41154
C     6.0     8.73383    12.37476    -3.69622
C     6.0     8.94140    10.94875    -3.52998
C     6.0     9.78756    10.27370    -4.37792
C     6.0     9.41522     8.96661    -4.88501
C     6.0     9.87023     8.87263    -6.25919
C     6.0    10.52376    10.12164    -6.60141
C     6.0    10.47265    10.98754    -5.43873
C     6.0    10.27588    12.33926    -5.59633
C     6.0     9.38320    13.05141    -4.70177
C     6.0     8.67502    14.05164    -5.47786
C     6.0     9.13002    13.95765    -6.85204
C     6.0    10.11939    12.89934    -6.92526
C     6.0    10.16786    12.07855    -8.02738
C     6.0    10.37543    10.65254    -7.86111
C     6.0     9.56546     9.96360    -8.84781
C     6.0     8.94604     8.77963    -8.52344
C     6.0     9.10250     8.21957    -7.19451
C     6.0     7.83753     7.62467    -6.80700
C     6.0     6.89930     7.81702    -7.89647
C     6.0     7.58439     8.53084    -8.95728
C     6.0     6.91310     9.47897    -9.69292
C     6.0     3.38091    -6.86552    -0.40161
C     6.0     2.39475    -7.84866     0.00480
C     6.0     2.54405    -9.01241    -0.84822
C     6.0     3.62250    -8.74853    -1.78179
C     6.0     4.13969    -7.42166    -1.50578
C     6.0     4.54122    -6.61111    -2.54139
C     6.0     4.44755    -7.08281    -3.90994
C     6.0     3.95723    -8.34053    -4.17158
C     6.0     3.53369    -9.19566    -3.07906
C     6.0     2.36156    -9.93127    -3.51406
C     6.0     1.33930   -10.18140    -2.62912
C     6.0     1.43298    -9.70969    -1.26056
C     6.0     0.11155    -9.28152    -0.84255
C     6.0    -0.02997    -8.17842    -0.03395
C     6.0     1.14216    -7.44281     0.40104
C     6.0     0.80692    -6.03153     0.41266
C     6.0    -0.57241    -5.89492    -0.01518
C     6.0    -1.08963    -7.22177    -0.29121
C     6.0    -1.95258    -7.41809    -1.34358
C     6.0    -1.80332    -8.58184    -2.19658
C     6.0    -0.79883    -9.48863    -1.95277
C     6.0    -0.04003   -10.04478    -3.05693
C     6.0    -0.32525    -9.66515    -4.34738
C     6.0     0.75320    -9.40127    -5.28094
C     6.0     2.06068    -9.53077    -4.87542
C     6.0     3.04685    -8.54763    -5.28179
C     6.0     2.67419    -7.48624    -6.07255
C     6.0     3.19142    -6.15941    -5.79650
C     6.0     4.05438    -5.96310    -4.74412
C     6.0     3.90502    -4.79937    -3.89111
C     6.0     2.90058    -3.89252    -4.13494
C     6.0     1.99024    -4.09961    -5.24514
C     6.0     2.13173    -5.20277    -6.05369
C     6.0     0.95960    -5.93836    -6.48871
C     6.0     1.29487    -7.34963    -6.50035
C     6.0     0.36006    -8.28153    -6.11512
C     6.0    -0.96138    -7.85337    -5.69709
C     6.0    -1.38492    -8.70851    -4.60458
C     6.0    -2.10419    -8.18135    -3.55793
C     6.0    -2.43941    -6.77006    -3.54631
C     6.0    -2.34572    -6.29835    -2.17775
C     6.0    -1.85549    -5.04060    -1.91606
C     6.0    -0.94515    -4.83347    -0.80585
C     6.0     0.04106    -3.85041    -1.21223
C     6.0    -0.25979    -3.45004    -2.57358
C     6.0    -1.43196    -4.18552    -3.00859
C     6.0    -1.52072    -4.63268    -4.30586
C     6.0    -2.03798    -5.95949    -4.58195
C     6.0    -1.27921    -6.51562    -5.68612
C     6.0    -0.29302    -5.53252    -6.09249
C     6.0    -0.44227    -4.36882    -5.23942
C     6.0     0.66882    -3.67157    -4.82710
C     6.0     0.76250    -3.20001    -3.45853
C     6.0     2.14178    -3.33649    -3.03076
C     6.0     2.42699    -3.71603    -1.74027
C     6.0     1.34856    -3.97991    -0.80671
C     6.0     1.74173    -5.09960     0.02748
C     6.0     3.06315    -5.52775    -0.39052
C     6.0     3.48667    -4.67267    -1.48306
C     6.0     4.20589    -5.19987    -2.52974
 $END
