%nprocshared=8
%mem=4096MB
%chk=C:\Users\e1667\Documents\Gaussian\SubPc-C60.chk
# opt wb97xd/6-31g(d) geom=connectivity units=(ang,deg)

SubPc-C60

0 1
 C                  2.27450800    3.37706300   -4.12580100
 C                  2.26305300    2.17692600   -4.85777200
 C                  2.86280200    1.02840000   -4.36450100
 C                  3.49911500    1.10211000   -3.12640400
 C                  2.88296000    3.45572400   -2.88283100
 C                  3.50889200    2.31270100   -2.38637000
 C                  4.08481100    0.07661900   -2.27989400
 N                  4.52675400    0.72740200   -1.16738000
 H                  1.78597100    4.25387200   -4.53909200
 H                  1.76463600    2.14886600   -5.82160500
 H                  2.83200700    0.09162700   -4.91064200
 H                  2.86797800    4.37131400   -2.30116200
 C                  4.09448400    2.01780300   -1.08918200
 N                  3.96188100    2.66557900    0.07048500
 C                  2.37141000   -5.28163000   -0.85146000
 C                  2.37928000   -5.32202300    0.55388600
 C                  2.96017700   -4.30742600    1.29855900
 C                  3.56129000   -3.25265800    0.61303200
 C                  2.94489400   -4.22626700   -1.54331500
 C                  3.55395600   -3.21245400   -0.80531100
 C                  4.12347100   -1.99423700    1.07523100
 N                  4.54393500   -1.34636600   -0.04783500
 H                  1.89507300   -6.08725600   -1.40131100
 H                  1.90963200   -6.15844300    1.06192300
 H                  2.94188200   -4.31803200    2.38317500
 H                  2.91411700   -4.17366200   -2.62643700
 B                  5.14080000    0.01700200   -0.01218500
 C                  4.11176400   -1.92994600   -1.20120300
 N                  3.95847000   -1.25098000   -2.33937100
 C                  2.31026800    1.89139600    4.97700900
 C                  2.31741200    3.13331500    4.31647700
 C                  2.91960500    3.28585200    3.07793400
 C                  3.54164500    2.17417300    2.51030300
 C                  2.91047200    0.77582200    4.41526300
 C                  3.53982900    0.92316200    3.17937400
 C                  4.10731900    1.95295600    1.18985300
 N                  4.53802800    0.65963300    1.18742500
 H                  1.81581700    1.80578000    5.93952300
 H                  1.82873400    3.98326700    4.78240300
 H                  2.89825100    4.23329200    2.55008800
 H                  2.88364000   -0.19130400    4.90588100
 C                  4.11357800   -0.05297600    2.26858600
 N                  3.98522200   -1.38155500    2.25245600
 Cl                 6.99784900    0.02825200   -0.02103800
 C                 -3.04043500    2.41430200    2.46269100
 C                 -1.60249900    2.55904200    2.34873800
 C                 -1.31771200    3.22512600    1.09249800
 C                 -2.57912500    3.49160000    0.43008100
 C                 -3.64355100    2.99073000    1.27700900
 C                 -4.75958800    2.39709400    0.70830000
 C                 -4.86192400    2.27617300   -0.73256100
 C                 -3.84388000    2.75437500   -1.54247900
 C                 -2.67720100    3.37609800   -0.94829600
 C                 -1.51820300    2.98952100   -1.72860500
 C                 -0.31310200    2.73188100   -1.09486600
 C                 -0.21014000    2.85329200    0.34638600
 C                  0.65783300    1.79623000    0.82168000
 C                  0.38343800    1.15913700    2.01898500
 C                 -0.76787400    1.55019200    2.80351900
 C                 -1.33061100    0.35251100    3.39575400
 C                 -0.51976300   -0.77595500    2.98162900
 C                  0.54028100   -0.27516400    2.13059100
 C                  0.95852400   -1.01289100    1.03617100
 C                  1.24695100   -0.34828500   -0.21861000
 C                  1.09366600    1.02452000   -0.32266800
 C                  0.49261300    1.60147100   -1.50673500
 C                  0.06589000    0.78012900   -2.53596800
 C                 -1.19388200    1.04825100   -3.19917900
 C                 -1.96879700    2.12802700   -2.80477100
 C                 -3.40642500    1.98274700   -2.68927700
 C                 -4.00673100    0.76631300   -2.97509300
 C                 -5.07141900    0.26603500   -2.12775300
 C                 -5.48938400    1.00407700   -1.03163000
 C                 -5.77419000    0.33841900    0.22387100
 C                 -5.62825900   -1.03596700    0.32864000
 C                 -5.19084300   -1.80808100   -0.81755400
 C                 -4.91885600   -1.17154800   -2.01826800
 C                 -3.75982500   -1.55937600   -2.79770000
 C                 -3.19617900   -0.36183600   -3.38887900
 C                 -1.82110200   -0.22400800   -3.49785000
 C                 -0.94634200   -1.27772600   -3.02154700
 C                  0.22074800   -0.65681600   -2.42742300
 C                  0.79452500   -1.20847100   -1.29419300
 C                  0.23099700   -2.40459700   -0.70315300
 C                  0.33308200   -2.28417200    0.73688200
 C                 -0.68173800   -2.76482400    1.54830500
 C                 -1.11930900   -1.99234900    2.69486200
 C                 -2.55721700   -2.13620100    2.80895800
 C                 -3.00770200   -2.99667900    1.73242500
 C                 -1.84827500   -3.38512300    0.95352500
 C                 -1.94651200   -3.50072200   -0.42485600
 C                 -0.88260700   -3.00078700   -1.27235900
 C                 -1.48584500   -2.42324300   -2.45714100
 C                 -2.92380900   -2.56666700   -2.34214800
 C                 -3.20828800   -3.23252300   -1.08612000
 C                 -4.31698900   -2.86208400   -0.34102400
 C                 -4.21416600   -2.74108200    1.09986200
 C                 -5.02458600   -1.61255000    1.51350700
 C                 -4.59382900   -0.78956900    2.54206400
 C                 -3.33240900   -1.05702900    3.20435400
 C                 -2.70555000    0.21494000    3.50461800
 C                 -3.57966800    1.26880900    3.02724100
 C                 -4.74659500    0.64787400    2.43240100
 C                 -5.32347200    1.19957200    1.29925400

 1 2 1.5 5 1.5 9 1.0
 2 3 1.5 10 1.0
 3 4 1.5 11 1.0
 4 6 1.5 7 1.0
 5 6 1.5 12 1.0
 6 13 1.0
 7 8 1.5 29 1.5
 8 13 1.5 27 1.0
 9
 10
 11
 12
 13 14 1.5
 14 36 1.5
 15 16 1.5 19 1.5 23 1.0
 16 17 1.5 24 1.0
 17 18 1.5 25 1.0
 18 20 1.5 21 1.0
 19 20 1.5 26 1.0
 20 28 1.0
 21 22 1.5 43 1.5
 22 27 1.0 28 1.5
 23
 24
 25
 26
 27 37 1.0 44 1.0
 28 29 1.5
 29
 30 31 1.5 34 2.0 38 1.0
 31 32 2.0 39 1.0
 32 33 1.5 40 1.0
 33 35 1.5 36 1.0
 34 35 1.5 41 1.0
 35 42 1.0
 36 37 1.5
 37 42 1.5
 38
 39
 40
 41
 42 43 1.5
 43
 44
 45 46 1.0 49 1.0 102 1.5
 46 47 1.0 59 1.5
 47 48 1.0 56 1.5
 48 49 1.0 53 1.5
 49 50 1.5
 50 51 1.0 104 1.0
 51 52 1.5 73 1.0
 52 53 1.0 70 1.0
 53 54 1.0
 54 55 2.0 69 1.0
 55 56 1.0 66 1.0
 56 57 1.0
 57 58 2.0 65 1.5
 58 59 1.5 62 1.5
 59 60 1.0
 60 61 1.0 101 1.5
 61 62 1.0 87 1.5
 62 63 2.0
 63 64 1.0 85 1.0
 64 65 2.0 83 1.0
 65 66 1.0
 66 67 2.0
 67 68 1.0 82 1.0
 68 69 1.5 80 1.0
 69 70 1.0
 70 71 1.5
 71 72 1.0 79 1.0
 72 73 2.0 77 1.0
 73 74 1.0
 74 75 1.5 104 1.0
 75 76 1.0 98 1.0
 76 77 2.0 96 1.0
 77 78 1.0
 78 79 1.0 94 1.5
 79 80 1.5
 80 81 1.0
 81 82 1.0 93 1.5
 82 83 2.0
 83 84 1.0
 84 85 1.0 92 2.0
 85 86 2.0
 86 87 1.0 90 1.0
 87 88 1.0
 88 89 1.0 100 1.5
 89 90 1.0 97 1.5
 90 91 1.5
 91 92 1.0 95 1.0
 92 93 1.0
 93 94 1.0
 94 95 1.0
 95 96 1.5
 96 97 1.0
 97 98 1.0
 98 99 2.0
 99 100 1.0 103 1.0
 100 101 1.0
 101 102 1.0
 102 103 1.0
 103 104 1.5
 104

