! ================================================================
! This structure was optimized by RM1.
! ================================================================
 $SYSTEM MWORDS=20 $END
 $CONTRL RUNTYP=gradient $END
 $STATPT  OptTol=1e-5 NStep=700 $END
 $BASIS GBASIS=rm1 NGAUSS=6 $END
 $CONTRL MAXIT=200 $END
 $CONTRL ICHARG=0  MULT=1 $END
 $DATA
Molecule specification
Cn 1

C     6.0     5.53369     3.24691     0.09046
C     6.0     4.98350     1.97547     0.24802
C     6.0     3.78784     1.78299     0.93588
C     6.0     3.16500     2.89554     1.46690
C     6.0     4.91027     4.37677     0.61447
C     6.0     3.72812     4.19683     1.30569
C     6.0     1.91066     3.03760     2.20035
N     7.0     1.91251     4.36646     2.65047
H     1.0     6.47584     3.36025    -0.45557
H     1.0     5.50201     1.10976    -0.17662
H     1.0     3.35208     0.78750     1.05880
H     1.0     5.33761     5.37574     0.49014
C     6.0     2.82748     5.15649     1.93772
N     7.0     2.68467     6.49093     1.72146
C     6.0    -3.60334     1.06874     1.68790
C     6.0    -4.42117     2.19561     1.76019
C     6.0    -3.90524     3.44582     2.09309
C     6.0    -2.55276     3.53357     2.35869
C     6.0    -2.23680     1.14686     1.94584
C     6.0    -1.71575     2.38013     2.28502
C     6.0    -1.71114     4.67729     2.69840
N     7.0    -0.47490     4.11441     3.05060
H     1.0    -4.04373     0.10180     1.42386
H     1.0    -5.49143     2.09642     1.55205
H     1.0    -4.54344     4.33218     2.14804
H     1.0    -1.59205     0.26547     1.88731
B     5.0     0.72741     4.96715     3.35961
C     6.0    -0.34827     2.79901     2.57888
N     7.0     0.83280     2.21046     2.25223
C     6.0    -0.96804    10.17750     0.76649
C     6.0     0.39976    10.32203     0.53745
C     6.0     1.30797     9.34111     0.92814
C     6.0     0.80998     8.21843     1.56013
C     6.0    -1.48228     9.04627     1.39541
C     6.0    -0.58988     8.07053     1.79457
C     6.0     1.47678     7.01789     2.05554
N     7.0     0.48510     6.33381     2.77503
H     1.0    -1.65257    10.96972     0.44645
H     1.0     0.76839    11.22553     0.04101
H     1.0     2.38105     9.44998     0.74739
H     1.0    -2.55474     8.92843     1.57402
C     6.0    -0.80254     6.77714     2.43744
N     7.0    -1.92010     6.00468     2.49318
Cl    17.0     1.02807     5.06767     5.21714
C     6.0    -3.04193     6.37386    -7.06573
C     6.0    -2.63598     7.28004    -6.00825
C     6.0    -1.32760     7.80687    -6.34703
C     6.0    -0.92489     7.22624    -7.61388
C     6.0    -1.98440     6.34060    -8.05807
C     6.0    -1.67362     5.16082    -8.69230
C     6.0    -0.28625     4.80187    -8.91722
C     6.0     0.71806     5.64139    -8.49618
C     6.0     0.39020     6.88598    -7.82706
C     6.0     1.37482     7.10767    -6.78514
C     6.0     0.99310     7.65806    -5.58427
C     6.0    -0.39427     8.01701    -5.35936
C     6.0    -0.71804     7.71197    -3.97866
C     6.0    -1.95829     7.21260    -3.65751
C     6.0    -2.94284     6.99084    -4.69948
C     6.0    -3.67240     5.77946    -4.37632
C     6.0    -3.13885     5.25255    -3.13458
C     6.0    -2.07945     6.13824    -2.69039
C     6.0    -0.95406     5.61922    -2.09482
C     6.0     0.35433     6.14600    -2.43369
C     6.0     0.46925     7.16449    -3.35028
C     6.0     1.52679     7.13118    -4.34258
C     6.0     2.41440     6.08126    -4.36644
C     6.0     2.81708     5.50062    -5.63330
C     6.0     2.31121     6.00009    -6.81030
C     6.0     1.90531     5.09388    -7.86779
C     6.0     2.02643     3.73536    -7.69321
C     6.0     0.96693     2.84971    -8.13739
C     6.0    -0.15850     3.36869    -8.73302
C     6.0    -1.46692     2.84190    -8.39425
C     6.0    -1.58178     1.82353    -7.47749
C     6.0    -0.39450     1.27609    -6.84911
C     6.0     0.84578     1.77540    -7.17023
C     6.0     1.83037     1.99714    -6.12830
C     6.0     2.56007     3.20845    -6.45151
C     6.0     2.94484     4.06745    -5.44911
C     6.0     2.62111     3.76234    -4.06840
C     6.0     2.29330     5.00697    -3.39930
C     6.0     1.29068     5.03844    -2.45888
C     6.0     0.56104     3.82713    -2.13549
C     6.0    -0.82632     4.18606    -1.91052
C     6.0    -1.83061     3.34656    -2.33158
C     6.0    -3.01792     3.89404    -2.95989
C     6.0    -3.42381     2.98785    -4.01738
C     6.0    -2.48742     1.88025    -4.04254
C     6.0    -1.50280     2.10191    -3.00059
C     6.0    -0.18769     1.76180    -3.21385
C     6.0     0.87182     2.64741    -2.76974
C     6.0     1.92947     2.61411    -3.76199
C     6.0     1.52347     1.70802    -4.81952
C     6.0     0.21502     1.18139    -4.48079
C     6.0    -0.71829     0.97115    -5.46841
C     6.0    -2.10566     1.32996    -5.24345
C     6.0    -2.63931     1.85682    -6.48515
C     6.0    -3.52694     2.90671    -6.46129
C     6.0    -3.92961     3.48732    -5.19442
C     6.0    -4.05724     4.92048    -5.37867
C     6.0    -3.73360     5.22562    -6.75937
C     6.0    -3.40579     3.98101    -7.42847
C     6.0    -2.40332     3.94949    -8.36909
C     6.0    -9.93402     4.77482     0.17554
C     6.0   -11.31475     5.11588     0.46089
C     6.0   -12.05516     5.06761    -0.78556
C     6.0   -11.13208     4.69664    -1.84125
C     6.0    -9.82114     4.51568    -1.24724
C     6.0    -8.69584     4.91170    -1.93105
C     6.0    -8.81961     5.51053    -3.24642
C     6.0   -10.06228     5.68219    -3.80948
C     6.0   -11.24942     5.26435    -3.08811
C     6.0   -12.29634     6.23424    -3.34786
C     6.0   -13.17132     6.58594    -2.34714
C     6.0   -13.04752     5.98704    -1.03175
C     6.0   -13.35402     7.00519    -0.04500
C     6.0   -12.65216     7.05093     1.13653
C     6.0   -11.60520     6.08104     1.39621
C     6.0   -10.53097     6.75797     2.09768
C     6.0   -10.91401     8.14625     2.27155
C     6.0   -12.22495     8.32730     1.67749
C     6.0   -12.52189     9.49145     1.00869
C     6.0   -13.26230     9.44320    -0.23779
C     6.0   -13.66726     8.23333    -0.75054
C     6.0   -13.55435     7.97422    -2.17333
C     6.0   -13.04240     8.93848    -3.00928
C     6.0   -12.11928     8.56746    -4.06495
C     6.0   -11.75624     7.25149    -4.22973
C     6.0   -10.37551     6.91031    -4.51504
C     6.0    -9.42977     7.90285    -4.62077
C     6.0    -8.11886     7.72180    -4.02669
C     6.0    -7.82200     6.55765    -3.35786
C     6.0    -7.08167     6.60596    -2.11139
C     6.0    -6.67669     7.81581    -1.59861
C     6.0    -6.98977     9.04393    -2.30421
C     6.0    -7.69167     8.99816    -3.48574
C     6.0    -8.73857     9.96807    -3.74551
C     6.0    -9.81276     9.29114    -4.44698
C     6.0   -11.12156     9.61453    -4.17646
C     6.0   -11.42806    10.63268    -3.18971
C     6.0   -12.61520    10.21485    -2.46836
C     6.0   -12.72220    10.46046    -1.11967
C     6.0   -11.64797    11.13740    -0.41824
C     6.0   -11.52416    10.53852     0.89717
C     6.0   -10.28152    10.36690     1.46027
C     6.0    -9.96826     9.13876     2.16582
C     6.0    -8.58752     8.79754     1.88053
C     6.0    -8.04747     9.81477     0.99856
C     6.0    -9.09440    10.78471     0.73886
C     6.0    -9.21177    11.35240    -0.50799
C     6.0   -10.52270    11.53351    -1.10203
C     6.0   -10.40980    11.27438    -2.52481
C     6.0    -9.02909    10.93314    -2.81013
C     6.0    -8.28868    10.98134    -1.56365
C     6.0    -7.29621    10.06204    -1.31745
C     6.0    -7.17232     9.46318    -0.00205
C     6.0    -6.78938     8.07490    -0.17584
C     6.0    -7.30140     7.11064     0.66007
C     6.0    -8.22444     7.48159     1.71579
C     6.0    -9.22216     6.43454     1.82728
C     6.0    -8.91574     5.41646     0.84049
C     6.0    -7.72857     5.83427     0.11916
C     6.0    -7.62173     5.58874    -1.22957
C     6.0     3.28559    -6.37479    -0.47138
C     6.0     2.29690    -7.34199    -0.03403
C     6.0     2.42776    -8.52378    -0.86499
C     6.0     3.49733    -8.28699    -1.81588
C     6.0     4.02749    -6.95884    -1.57262
C     6.0     4.42309    -6.17238    -2.62889
C     6.0     4.31023    -6.67080    -3.98647
C     6.0     3.80763    -7.92974    -4.21707
C     6.0     3.39033    -8.75945    -3.10275
C     6.0     2.20787    -9.49470    -3.50948
C     6.0     1.19400    -9.71913    -2.60814
C     6.0     1.30690    -9.22071    -1.25054
C     6.0    -0.00644    -8.77414    -0.82632
C     6.0    -0.13048    -7.65392    -0.03864
C     6.0     1.05199    -6.91869     0.36810
C     6.0     0.72739    -5.50494     0.35499
C     6.0    -0.65570    -5.36644    -0.05990
C     6.0    -1.18590    -6.69458    -0.30315
C     6.0    -2.06231    -6.90544    -1.34149
C     6.0    -1.93150    -8.08723    -2.17243
C     6.0    -0.93102    -8.99657    -1.92174
C     6.0    -0.18910    -9.58062    -3.02296
C     6.0    -0.48629    -9.22488    -4.31751
C     6.0     0.58329    -8.98809    -5.26838
C     6.0     1.89434    -9.11938    -4.87515
C     6.0     2.88304    -8.15218    -5.31247
C     6.0     2.50921    -7.10412    -6.12026
C     6.0     3.03940    -5.77599    -5.87695
C     6.0     3.91582    -5.56514    -4.83861
C     6.0     3.78491    -4.38337    -4.00765
C     6.0     2.78448    -3.47398    -4.25837
C     6.0     1.85994    -3.69639    -5.35377
C     6.0     1.98395    -4.81665    -6.14140
C     6.0     0.80147    -5.55186    -6.54815
C     6.0     1.12611    -6.96560    -6.53506
C     6.0     0.18891    -7.88239    -6.12050
C     6.0    -1.12443    -7.43582    -5.69628
C     6.0    -1.54172    -8.26552    -4.58195
C     6.0    -2.24501    -7.71193    -3.53810
C     6.0    -2.56959    -6.29818    -3.55121
C     6.0    -2.45666    -5.79975    -2.19362
C     6.0    -1.95418    -4.54076    -1.96296
C     6.0    -1.02964    -4.31828    -0.86755
C     6.0    -0.04091    -3.35116    -1.30486
C     6.0    -0.35439    -2.97603    -2.67053
C     6.0    -1.53689    -3.71112    -3.07728
C     6.0    -1.64386    -4.18360    -4.36417
C     6.0    -2.17408    -5.51171    -4.60750
C     6.0    -1.43219    -6.09573    -5.70874
C     6.0    -0.44347    -5.12857    -6.14606
C     6.0    -0.57429    -3.94684    -5.31505
C     6.0     0.54661    -3.24997    -4.92949
C     6.0     0.65950    -2.75171    -3.57188
C     6.0     2.04256    -2.89009    -3.15711
C     6.0     2.33975    -3.24569    -1.86252
C     6.0     1.27017    -3.48250    -0.91168
C     6.0     1.66459    -4.58813    -0.05952
C     6.0     2.97792    -5.03468    -0.48373
C     6.0     3.39519    -4.20503    -1.59807
C     6.0     4.09841    -4.75867    -2.64196
 $END
