 ! ================================================================
! This file was generated by Gabedit
! ================================================================
 $SYSTEM MWORDS=20 $END
 $CONTRL RUNTYP=Gradient $END
 $STATPT  OptTol=1e-5 NStep=500 $END
 $BASIS GBASIS=rm1 NGAUSS=6 $END
 $CONTRL MAXIT=100 $END
 $CONTRL ICHARG=0  MULT=1 $END
 $DATA
Molecule specification
Cn 1

C      6.0      4.4402000000   -3.9731000000   -2.5058000000 
C      6.0      3.9270000000   -3.5366000000   -3.7265000000 
C      6.0      2.5697000000   -3.6409000000   -4.0213000000 
C      6.0      1.7450000000   -4.2006000000   -3.0652000000 
C      6.0      3.6168000000   -4.5316000000   -1.5311000000 
C      6.0      2.2703000000   -4.6475000000   -1.8159000000 
C      6.0      0.3017000000   -4.4203000000   -3.0490000000 
N      7.0      0.0761000000   -5.2048000000   -1.9075000000 
H      1.0      5.5128000000   -3.8763000000   -2.3089000000 
H      1.0      4.6043000000   -3.1035000000   -4.4696000000 
H      1.0      2.1634000000   -3.2967000000   -4.9765000000 
H      1.0      4.0157000000   -4.8723000000   -0.5715000000 
C      6.0      1.1571000000   -5.1483000000   -1.0148000000 
N      7.0      1.0491000000   -5.2938000000    0.3325000000 
C      6.0     -4.5189000000   -1.3366000000   -4.3860000000 
C      6.0     -5.3512000000   -1.4232000000   -3.2706000000 
C      6.0     -5.0541000000   -2.2738000000   -2.2086000000 
C      6.0     -3.9077000000   -3.0390000000   -2.2986000000 
C      6.0     -3.3563000000   -2.0971000000   -4.4840000000 
C      6.0     -3.0560000000   -2.9503000000   -3.4401000000 
C      6.0     -3.3073000000   -3.9861000000   -1.3638000000 
N      7.0     -2.2724000000   -4.5933000000   -2.0911000000 
H      1.0     -4.7847000000   -0.6575000000   -5.2026000000 
H      1.0     -6.2578000000   -0.8108000000   -3.2284000000 
H      1.0     -5.7031000000   -2.3419000000   -1.3310000000 
H      1.0     -2.6998000000   -2.0294000000   -5.3560000000 
B      5.0     -1.3138000000   -5.5627000000   -1.4511000000 
C      6.0     -1.9205000000   -3.8418000000   -3.2225000000 
N      7.0     -0.6790000000   -3.8231000000   -3.7765000000 
C      6.0     -2.1292000000   -4.1660000000    4.3911000000 
C      6.0     -0.7837000000   -4.5162000000    4.4962000000 
C      6.0     -0.0485000000   -4.9127000000    3.3817000000 
C      6.0     -0.6991000000   -4.9562000000    2.1642000000 
C      6.0     -2.7934000000   -4.1982000000    3.1673000000 
C      6.0     -2.0762000000   -4.5978000000    2.0566000000 
C      6.0     -0.2173000000   -5.2912000000    0.8273000000 
N      7.0     -1.3764000000   -5.3559000000    0.0394000000 
H      1.0     -2.6760000000   -3.8600000000    5.2889000000 
H      1.0     -0.2944000000   -4.4800000000    5.4749000000 
H      1.0      1.0078000000   -5.1851000000    3.4601000000 
H      1.0     -3.8479000000   -3.9213000000    3.0808000000 
C      6.0     -2.4596000000   -4.7075000000    0.6521000000 
N      7.0     -3.4807000000   -4.1146000000   -0.0214000000 
Cl    17.0     -1.7409000000   -7.3403000000   -1.9077000000 
C      6.0      2.7666000000    3.1062000000    3.5814000000 
C      6.0      2.3788000000    1.7089000000    3.6140000000 
C      6.0      3.0838000000    1.0230000000    2.5478000000 
C      6.0      3.9073000000    1.9966000000    1.8562000000 
C      6.0      3.7113000000    3.2841000000    2.4950000000 
C      6.0      3.6785000000    4.4302000000    1.7361000000 
C      6.0      3.8399000000    4.3519000000    0.2967000000 
C      6.0      4.0257000000    3.1314000000   -0.3089000000 
C      6.0      4.0603000000    1.9223000000    0.4917000000 
C      6.0      3.3982000000    0.8703000000   -0.2562000000 
C      6.0      2.6176000000   -0.0524000000    0.3994000000 
C      6.0      2.4562000000    0.0259000000    1.8389000000 
C      6.0      1.0891000000   -0.3401000000    2.1572000000 
C      6.0      0.4208000000    0.3099000000    3.1680000000 
C      6.0      1.0829000000    1.3618000000    3.9158000000 
C      6.0      0.1037000000    2.3932000000    4.2016000000 
C      6.0     -1.1636000000    1.9786000000    3.6303000000 
C      6.0     -0.9676000000    0.6911000000    2.9916000000 
C      6.0     -1.6154000000    0.4025000000    1.8135000000 
C      6.0     -0.9104000000   -0.2833000000    0.7473000000 
C      6.0      0.4056000000   -0.6447000000    0.9146000000 
C      6.0      1.3503000000   -0.4669000000   -0.1718000000 
C      6.0      0.9296000000    0.0631000000   -1.3688000000 
C      6.0      1.7531000000    1.0365000000   -2.0605000000 
C      6.0      2.9545000000    1.4294000000   -1.5190000000 
C      6.0      3.3422000000    2.8268000000   -1.5516000000 
C      6.0      2.5085000000    3.7585000000   -2.1240000000 
C      6.0      2.3125000000    5.0460000000   -1.4851000000 
C      6.0      2.9604000000    5.3348000000   -0.3072000000 
C      6.0      2.2555000000    6.0206000000    0.7591000000 
C      6.0      0.9394000000    6.3820000000    0.5918000000 
C      6.0      0.2559000000    6.0773000000   -0.6509000000 
C      6.0      0.9241000000    5.4272000000   -1.6616000000 
C      6.0      0.2620000000    4.3753000000   -2.4095000000 
C      6.0      1.2412000000    3.3440000000   -2.6952000000 
C      6.0      0.8736000000    2.0194000000   -2.6644000000 
C      6.0     -0.4934000000    1.6533000000   -2.3460000000 
C      6.0     -0.4588000000    0.4443000000   -1.5453000000 
C      6.0     -1.3543000000    0.2757000000   -0.5155000000 
C      6.0     -2.3335000000    1.3070000000   -0.2298000000 
C      6.0     -2.4950000000    1.3853000000    1.2097000000 
C      6.0     -2.6808000000    2.6058000000    1.8152000000 
C      6.0     -1.9972000000    2.9104000000    3.0579000000 
C      6.0     -1.6094000000    4.3078000000    3.0253000000 
C      6.0     -2.0532000000    4.8668000000    1.7625000000 
C      6.0     -2.7153000000    3.8149000000    1.0146000000 
C      6.0     -2.5623000000    3.7406000000   -0.3499000000 
C      6.0     -2.3664000000    2.4531000000   -0.9888000000 
C      6.0     -1.4217000000    2.6309000000   -2.0751000000 
C      6.0     -1.0339000000    4.0283000000   -2.1077000000 
C      6.0     -1.7388000000    4.7141000000   -1.0414000000 
C      6.0     -1.1112000000    5.7113000000   -0.3325000000 
C      6.0     -1.2726000000    5.7896000000    1.1069000000 
C      6.0     -0.0053000000    6.2042000000    1.6782000000 
C      6.0      0.4154000000    5.6743000000    2.8753000000 
C      6.0     -0.4081000000    4.7007000000    3.5668000000 
C      6.0      0.4713000000    3.7178000000    4.1706000000 
C      6.0      1.8384000000    4.0839000000    3.8523000000 
C      6.0      1.8038000000    5.2930000000    3.0517000000 
C      6.0      2.6993000000    5.4616000000    2.0219000000 
 $END


