! ================================================================
! This structure was not fully by RM1 mod UFF(16 steps were taken).
! ================================================================
 $SYSTEM MWORDS=20 $END
 $CONTRL RUNTYP=gradient $END
 $STATPT  OptTol=1e-5 NStep=700 $END
 $BASIS GBASIS=rm1 NGAUSS=6 $END
 $CONTRL MAXIT=200 $END
 $CONTRL ICHARG=0  MULT=1 $END
 $DATA
Molecule specification
Cn 1

C     6.0     4.68000     2.13700    -1.77200
C     6.0     3.96000     0.97000    -1.46600
C     6.0     2.91400     0.98600    -0.54700
C     6.0     2.59800     2.19500     0.06500
C     6.0     4.37900     3.35200    -1.16200
C     6.0     3.33600     3.38100    -0.24100
C     6.0     1.52300     2.56400     0.96700
N     7.0     1.79000     3.88900     1.34700
H     1.0     5.49300     2.08900    -2.50300
H     1.0     4.22800     0.03100    -1.96000
H     1.0     2.34400     0.08600    -0.30300
H     1.0     4.93400     4.26600    -1.39400
C     6.0     2.72200     4.48100     0.47700
N     7.0     2.76200     5.81600     0.17800
C     6.0    -4.23300     1.50100     0.79300
C     6.0    -4.85200     2.75300     0.83900
C     6.0    -4.12400     3.90900     1.14700
C     6.0    -2.76800     3.77400     1.39700
C     6.0    -2.86400     1.35400     1.05200
C     6.0    -2.13400     2.49300     1.35000
C     6.0    -1.73400     4.77600     1.64200
N     7.0    -0.58700     4.05000     1.98400
H     1.0    -4.82600     0.61500     0.54600
H     1.0    -5.92200     2.84100     0.62700
H     1.0    -4.59300     4.89500     1.18700
H     1.0    -2.37700     0.37600     1.01300
B     5.0     0.77700     4.72300     2.12700
C     6.0    -0.70400     2.70000     1.56500
N     7.0     0.32700     1.92600     1.17100
C     6.0    -0.41000     9.79400    -1.05600
C     6.0     0.95000     9.72200    -1.36900
C     6.0     1.76300     8.71100    -0.84300
C     6.0     1.17500     7.77300    -0.01200
C     6.0    -1.01000     8.85900    -0.20400
C     6.0    -0.21400     7.85100     0.31800
C     6.0     1.70500     6.54900     0.58100
N     7.0     0.68800     6.09400     1.45700
H     1.0    -1.02200    10.59400    -1.48500
H     1.0     1.39400    10.46500    -2.04100
H     1.0     2.83000     8.65000    -1.07500
H     1.0    -2.07600     8.90800     0.04000
C     6.0    -0.54100     6.68600     1.13700
N     7.0    -1.75900     6.10600     1.34400
Cl    17.0     1.26500     4.88100     3.92500
C     6.0    -3.69600     5.79000    -6.72800
C     6.0    -3.25000     6.78400    -5.76500
C     6.0    -1.94000     7.25800    -6.18100
C     6.0    -1.57600     6.55700    -7.40200
C     6.0    -2.66200     5.65000    -7.74000
C     6.0    -2.38200     4.40700    -8.27400
C     6.0    -1.00300     4.00500    -8.49800
C     6.0     0.02800     4.86500    -8.17900
C     6.0    -0.26800     6.17300    -7.61500
C     6.0     0.74500     6.46800    -6.61600
C     6.0     0.39800     7.13200    -5.45700
C     6.0    -0.97700     7.54100    -5.23300
C     6.0    -1.27000     7.36900    -3.81900
C     6.0    -2.51300     6.92000    -3.42300
C     6.0    -3.52500     6.61700    -4.42300
C     6.0    -4.25400     5.44300    -3.97900
C     6.0    -3.70300     5.02300    -2.70200
C     6.0    -2.62500     5.93400    -2.36000
C     6.0    -1.48900     5.44700    -1.74900
C     6.0    -0.17900     5.92000    -2.16500
C     6.0    -0.07300     6.85600    -3.17300
C     6.0     0.96000     6.71200    -4.18400
C     6.0     1.83600     5.64600    -4.13400
C     6.0     2.19900     4.94500    -5.35500
C     6.0     1.66800     5.34600    -6.56400
C     6.0     1.22500     4.35500    -7.53000
C     6.0     1.33200     3.01000    -7.23500
C     6.0     0.24600     2.10400    -7.57300
C     6.0    -0.89100     2.58900    -8.18800
C     6.0    -2.20100     2.11600    -7.77200
C     6.0    -2.31000     1.18100    -6.76200
C     6.0    -1.11200     0.67300    -6.11400
C     6.0     0.13300     1.12000    -6.50900
C     6.0     1.14900     1.42000    -5.51300
C     6.0     1.89200     2.58700    -5.96200
C     6.0     2.31500     3.53000    -5.04600
C     6.0     2.02100     3.35600    -3.63300
C     6.0     1.72600     4.66400    -3.07000
C     6.0     0.74200     4.79800    -2.11300
C     6.0     0.00000     3.63100    -1.66500
C     6.0    -1.37700     4.03200    -1.44200
C     6.0    -2.40800     3.17100    -1.76000
C     6.0    -3.60600     3.67900    -2.40500
C     6.0    -4.05500     2.68600    -3.36600
C     6.0    -3.13400     1.56100    -3.31300
C     6.0    -2.11700     1.86100    -2.31800
C     6.0    -0.80700     1.48500    -2.53200
C     6.0     0.27900     2.38900    -2.19700
C     6.0     1.31600     2.24900    -3.20700
C     6.0     0.86700     1.26000    -4.17200
C     6.0    -0.44600     0.79500    -3.75800
C     6.0    -1.40900     0.50400    -4.70100
C     6.0    -2.78900     0.89900    -4.47400
C     6.0    -3.34500     1.32200    -5.74900
C     6.0    -4.21900     2.38900    -5.79900
C     6.0    -4.58300     3.08800    -4.57700
C     6.0    -4.68800     4.50300    -4.89000
C     6.0    -4.39800     4.68100    -6.30200
C     6.0    -4.10500     3.37200    -6.86400
C     6.0    -3.12300     3.24000    -7.82500
C     6.0    -9.30100     4.56600     0.33100
C     6.0   -10.68400     4.95900     0.54100
C     6.0   -11.38100     4.84900    -0.73000
C     6.0   -10.42900     4.38900    -1.72700
C     6.0    -9.14300     4.21300    -1.07100
C     6.0    -7.97900     4.53900    -1.73800
C     6.0    -8.04200     5.05900    -3.09500
C     6.0    -9.26200     5.22500    -3.71900
C     6.0   -10.48700     4.88000    -3.01600
C     6.0   -11.49900     5.85900    -3.37600
C     6.0   -12.40400     6.29600    -2.43000
C     6.0   -12.34400     5.77800    -1.07200
C     6.0   -12.65900     6.86600    -0.16200
C     6.0   -11.99800     6.97100     1.04500
C     6.0   -10.98500     5.99300     1.40600
C     6.0    -9.91700     6.68900     2.10600
C     6.0   -10.27100     8.09800     2.17800
C     6.0   -11.55700     8.27100     1.52200
C     6.0   -11.80000     9.40200     0.76700
C     6.0   -12.49700     9.29200    -0.50400
C     6.0   -12.91500     8.05700    -0.95600
C     6.0   -12.75700     7.70400    -2.35800
C     6.0   -12.18900     8.60500    -3.23600
C     6.0   -11.23600     8.14500    -4.23300
C     6.0   -10.90000     6.80700    -4.30100
C     6.0    -9.51700     6.41500    -4.51300
C     6.0    -8.53900     7.38200    -4.64500
C     6.0    -7.25500     7.20900    -3.98800
C     6.0    -7.02000     6.08200    -3.23000
C     6.0    -6.32500     6.19400    -1.95800
C     6.0    -5.89600     7.42500    -1.50900
C     6.0    -6.14800     8.61400    -2.30600
C     6.0    -6.81000     8.50900    -3.51300
C     6.0    -7.82400     9.48700    -3.87400
C     6.0    -8.89100     8.79000    -4.57300
C     6.0   -10.20600     9.16100    -4.37200
C     6.0   -10.52200    10.25000    -3.46100
C     6.0   -11.74800     9.90600    -2.76000
C     6.0   -11.89800    10.24000    -1.42800
C     6.0   -10.83100    10.93600    -0.72900
C     6.0   -10.77000    10.41800     0.62800
C     6.0    -9.54900    10.25400     1.25000
C     6.0    -9.29300     9.06300     2.04500
C     6.0    -7.90900     8.67100     1.83400
C     6.0    -7.30900     9.62000     0.90900
C     6.0    -8.32300    10.59800     0.54800
C     6.0    -8.38000    11.08900    -0.74000
C     6.0    -9.66600    11.26300    -1.39600
C     6.0    -9.50800    10.91100    -2.79700
C     6.0    -8.12400    10.51900    -3.00800
C     6.0    -7.42700    10.63000    -1.73700
C     6.0    -6.46400     9.70200    -1.39500
C     6.0    -6.40300     9.18400    -0.03700
C     6.0    -6.05000     7.77600    -0.10700
C     6.0    -6.62000     6.87500     0.77000
C     6.0    -7.57300     7.33400     1.76700
C     6.0    -8.60300     6.31700     1.90600
C     6.0    -8.28800     5.22900     0.99600
C     6.0    -7.06500     5.57600     0.29300
C     6.0    -6.91500     5.24000    -1.03700
C     6.0     4.53400     7.19400    -7.22200
C     6.0     4.06600     7.27500    -5.84900
C     6.0     3.08000     8.33900    -5.77500
C     6.0     2.93100     8.91200    -7.10000
C     6.0     3.83200     8.20600    -7.99500
C     6.0     4.49600     8.89800    -8.98700
C     6.0     4.29100    10.33000    -9.13600
C     6.0     3.43000    10.99800    -8.28700
C     6.0     2.73000    10.26900    -7.24200
C     6.0     2.66300    11.12000    -6.06500
C     6.0     2.79600    10.57100    -4.80500
C     6.0     3.00800     9.14200    -4.65600
C     6.0     3.93100     8.93000    -3.55500
C     6.0     4.87200     7.92100    -3.62400
C     6.0     4.94000     7.07100    -4.80100
C     6.0     6.33800     6.78500    -5.07200
C     6.0     7.13600     7.46200    -4.06300
C     6.0     6.23000     8.16400    -3.16800
C     6.0     6.57800     9.40200    -2.66500
C     6.0     5.58600    10.46200    -2.59100
C     6.0     4.29600    10.23300    -3.02300
C     6.0     3.59500    11.24700    -3.79500
C     6.0     4.22200    12.43900    -4.09800
C     6.0     4.08300    13.01800    -5.42500
C     6.0     3.32300    12.37600    -6.38300
C     6.0     3.79700    12.30000    -7.75600
C     6.0     5.00600    12.86900    -8.10100
C     6.0     5.91200    12.16700    -8.99600
C     6.0     5.56400    10.93000    -9.50000
C     6.0     6.55600     9.87000    -9.57500
C     6.0     7.84700    10.10000    -9.14200
C     6.0     8.21300    11.40300    -8.61100
C     6.0     7.27100    12.40900    -8.54000
C     6.0     7.20500    13.26100    -7.36300
C     6.0     5.80500    13.54600    -7.09200
C     6.0     5.35600    13.61800    -5.78900
C     6.0     6.28100    13.41000    -4.68800
C     6.0     5.58200    12.68100    -3.64300
C     6.0     6.24600    11.71900    -2.90900
C     6.0     7.64500    11.43400    -3.18000
C     6.0     7.85100    10.00200    -3.03000
C     6.0     8.71100     9.33600    -3.88000
C     6.0     8.34500     8.03300    -4.41000
C     6.0     8.81800     7.95700    -5.78300
C     6.0     9.47700     9.21300    -6.10100
C     6.0     9.41100    10.06500    -4.92500
C     6.0     9.21600    11.42400    -5.06700
C     6.0     8.31000    12.12600    -4.17300
C     6.0     7.61100    13.13900    -4.94600
C     6.0     8.08400    13.06300    -6.31800
C     6.0     9.07600    12.00400    -6.39300
C     6.0     9.13900    11.19500    -7.51000
C     6.0     9.34500     9.76300    -7.36000
C     6.0     8.54600     9.08700    -8.36900
C     6.0     7.92000     7.89400    -8.06700
C     6.0     8.06000     7.31400    -6.74100
C     6.0     6.78700     6.71300    -6.37600
C     6.0     5.86100     6.92100    -7.47900
C     6.0     6.56100     7.65100    -8.52400
C     6.0     5.89700     8.61400    -9.25800
C     6.0     3.31900    -5.68600    -0.36700
C     6.0     2.24100    -6.59000    -0.00200
C     6.0     2.28700    -7.72900    -0.90400
C     6.0     3.39300    -7.52900    -1.82600
C     6.0     4.03100    -6.26600    -1.49400
C     6.0     4.51400    -5.45200    -2.49900
C     6.0     4.38400    -5.85800    -3.88900
C     6.0     3.77800    -7.05800    -4.20400
C     6.0     3.27000    -7.91500    -3.14600
C     6.0     2.03400    -8.52200    -3.61300
C     6.0     0.98400    -8.71200    -2.73800
C     6.0     1.11400    -8.30600    -1.34800
C     6.0    -0.16700    -7.77400    -0.91400
C     6.0    -0.21100    -6.69100    -0.05800
C     6.0     1.02400    -6.08500     0.41000
C     6.0     0.82000    -4.64700     0.47900
C     6.0    -0.54100    -4.36500     0.05400
C     6.0    -1.17900    -5.62900    -0.27800
C     6.0    -2.05400    -5.70200    -1.34400
C     6.0    -2.00800    -6.84200    -2.24500
C     6.0    -1.08900    -7.85100    -2.03600
C     6.0    -0.37700    -8.43100    -3.16300
C     6.0    -0.62000    -7.97300    -4.44200
C     6.0     0.48600    -7.77300    -5.36500
C     6.0     1.77900    -8.04000    -4.96100
C     6.0     2.85600    -7.13500    -5.32500
C     6.0     2.58700    -6.00800    -6.07700
C     6.0     3.22500    -4.74500    -5.74600
C     6.0     4.10100    -4.67200    -4.68000
C     6.0     4.05600    -3.53200    -3.77900
C     6.0     3.13700    -2.52400    -3.98900
C     6.0     2.21500    -2.60100    -5.11100
C     6.0     2.25800    -3.68300    -5.96700
C     6.0     1.02100    -4.28900    -6.43400
C     6.0     1.22500    -5.72700    -6.50200
C     6.0     0.20200    -6.58600    -6.15500
C     6.0    -1.07900    -6.05300    -5.72200
C     6.0    -1.58700    -6.91100    -4.66300
C     6.0    -2.26300    -6.36000    -3.59300
C     6.0    -2.46800    -4.92200    -3.52400
C     6.0    -2.33800    -4.51600    -2.13400
C     6.0    -1.73300    -3.31500    -1.81800
C     6.0    -0.81200    -3.23800    -0.69500
C     6.0     0.26700    -2.33500    -1.06000
C     6.0     0.01300    -1.85900    -2.40800
C     6.0    -1.22400    -2.46100    -2.87700
C     6.0    -1.34700    -2.84500    -4.19800
C     6.0    -1.98600    -4.10800    -4.53000
C     6.0    -1.27300    -4.68800    -5.65700
C     6.0    -0.19600    -3.78300    -6.02300
C     6.0    -0.24100    -2.64600    -5.12000
C     6.0     0.93300    -2.07400    -4.67500
C     6.0     1.06400    -1.67400    -3.28400
C     6.0     2.42400    -1.94800    -2.86100
C     6.0     2.66600    -2.40400    -1.58000
C     6.0     1.56000    -2.60200    -0.65700
C     6.0     1.84400    -3.78800     0.13300
C     6.0     3.12600    -4.32000    -0.30100
C     6.0     3.63500    -3.46400    -1.36000
C     6.0     4.31100    -4.01400    -2.43100
 $END
